
  12   12
  10   10   10   10   10   10   10   10   10   10   10   10

   0   0   0   0   0   0   0   0   0   0   0   0   0   4 2 3 4 6 
   3   0   1   0   0   0   0   0   0   0   0   0   0   3 11 8 5 
   3   1   0   0   5   0   0   0   0   0   0   5   0   3 9 8 5 
  10   0   0   0   0   1   0   0   0   0   0   0   1   3 10 9 7 
   4   0   8   1   0   3   0   0   1   0   0   0   0   1 7 
   6   0   0   7   0   7   1   0   6   0   0   0   0   1 8 
   6   0   0   0   0   5   0   1   0   0   1   0   0   1 12
   7   6   6   7   0   6   0   0   0   0   0   0   0   1 12
   7   9   0   0   0   0   9   9   5   1   8   0   9   1 12
   4   4   5   0   0   0   0   0   0   9   7   0   0   1 12
  10   0   0   0   0   8   0   0   8   0   4   0   0   1 12
   0   0   0   0   0   0   0   0   0   0   0   0   0   0 
